 100 

  21  44  34   6   1  31  30  33  11   1  12  36  28  12  49  48  15  12  45  35  20  25   3  11  18   7  43  44  24   5  29  46  19  16   5  28   3  24  15  19  21  38  46  18  39  29  46   6  18  25   3   6  17  31  16   2  43  30  18   2  32  16  28  50  27  30   1  41  16  14  18  15  35  31  19  11  50  20   6  32  15   8  13  33  26   1  29  46   4  28  39  13  29  26   2  35  21  32  22  32

 1154

  21   4  25   1  21  22  18  20  17  22  16  15  20   5  16  20  16  24  16  14  16  17   8   3  15  17   7  23  12  23  19   9  18   4   2   6  21   5   7   3  12  15   3   8  10   4  22  11  21  15   5  25  24   7  21  15  25  19  15  23   6  13   6   1   3  20  10  11  16  22  15   8  24  22  20  19   5  22  13   6   5  24   8  17  25  21  16   9  15  16  20  10  24  22  15  11   1  10  21  16

